
Gurobi 11.0.3 (linux64) logging started Sat Nov 23 00:00:01 2024

Set parameter LogFile to value "/home/yihong/Coding/OR_SUC/SUC_results_bigM100000_thread4/case24_ieee_rts_theta0.1_epsilon0.025_gurobi_seed550000_num_gen100_N_WDR100_load_scaling_factor1_exact_T24quadra_cost.txt"
Set parameter TimeLimit to value 3600
Gurobi Optimizer version 11.0.3 build v11.0.3rc0 (linux64 - "Ubuntu 20.04.6 LTS")

CPU model: AMD EPYC 7532 32-Core Processor, instruction set [SSE2|AVX|AVX2]
Thread count: 64 physical cores, 128 logical processors, using up to 4 threads

Optimize a model with 52043 rows, 29961 columns and 712938 nonzeros
Model fingerprint: 0x8fd32eb0
Model has 2400 quadratic constraints
Variable types: 27461 continuous, 2500 integer (2500 binary)
Coefficient statistics:
  Matrix range     [3e-04, 1e+05]
  QMatrix range    [2e-03, 8e-03]
  QLMatrix range   [2e-02, 6e+01]
  Objective range  [1e+00, 1e+00]
  Bounds range     [1e+00, 1e+00]
  RHS range        [1e+00, 1e+05]
Presolve removed 42121 rows and 12961 columns
Presolve time: 0.25s
Presolved: 9922 rows, 17000 columns, 62690 nonzeros
Presolved model has 2400 quadratic constraint(s)
Variable types: 14539 continuous, 2461 integer (2461 binary)

Root relaxation: objective 3.641127e+04, 7845 iterations, 0.19 seconds (0.27 work units)

    Nodes    |    Current Node    |     Objective Bounds      |     Work
 Expl Unexpl |  Obj  Depth IntInf | Incumbent    BestBd   Gap | It/Node Time

     0     0 36411.2699    0    3          - 36411.2699      -     -    0s
     0     0 300991.217    0  763          - 300991.217      -     -    1s
     0     0 322523.938    0  747          - 322523.938      -     -    1s
     0     0 591095.417    0  767          - 591095.417      -     -    1s
     0     0 591140.915    0  501          - 591140.915      -     -    1s
     0     0 591644.359    0  342          - 591644.359      -     -    1s
     0     0 591825.399    0  338          - 591825.399      -     -    1s
     0     0 591826.350    0  338          - 591826.350      -     -    1s
     0     2 591826.350    0  338          - 591826.350      -     -    2s
H  501   451                    592056.50411 591979.252  0.01%  12.6    4s
*  501   451             173    592056.50411 591979.252  0.01%  12.6    4s

Cutting planes:
  Gomory: 4
  Implied bound: 456
  MIR: 139
  Flow cover: 218
  RLT: 2
  PSD: 8

Explored 697 nodes (30380 simplex iterations) in 4.84 seconds (6.01 work units)
Thread count was 4 (of 128 available processors)

Solution count 2: 592057 592057 

Optimal solution found (tolerance 1.00e-03)
Warning: max constraint violation (2.0722e-07) exceeds tolerance
Best objective 5.920565041156e+05, best bound 5.919806373440e+05, gap 0.0128%
